SCIP version 5.0.0 [precision: 8 byte] [memory: block] [mode: optimized] [LP solver: NONE] [GitHash: 3bbd232]
Copyright (C) 2002-2017 Konrad-Zuse-Zentrum fuer Informationstechnik Berlin (ZIB)

External codes: 
  Readline EditLine w  GNU library for command line editing (gnu.org/s/readline)
  CppAD 20160000.1     Algorithmic Differentiation of C++ algorithms developed by B. Bell (www.coin-or.org/CppAD)
  ZLIB 1.2.5           General purpose compression library by J. Gailly and M. Adler (zlib.net)
  GMP 6.1.2            GNU Multiple Precision Arithmetic Library developed by T. Granlund (gmplib.org)

user parameter file <scip.set> not found - using default parameters

read problem <../../Split_data/output/biodeg/8/1_sample_biodeg.logreg>
============

File name	:	../../Split_data/output/biodeg/8/1_sample_biodeg.logreg
Problem name 	:	1_sample_biodeg
Number of data	:	844
Number of var	:	41
The given data has linear independence

[dim=1] time: 0.02953
[dim=2] time: 0.068332
[dim=3] time: 0.109184
[dim=4] time: 0.141517
[dim=5] time: 0.176284
[dim=6] time: 0.211149
[dim=7] time: 0.23769
[dim=8] time: 0.269162
[dim=9] time: 0.299543
[dim=10] time: 0.329719
[dim=11] time: 0.356644
[dim=12] time: 0.380288
[dim=13] time: 0.405177
[dim=14] time: 0.428277
[dim=15] time: 0.445525
[dim=16] time: 0.461915
[dim=17] time: 0.478368
[dim=18] time: 0.494449
[dim=19] time: 0.510439
[dim=20] time: 0.525995
[dim=21] time: 0.542007
[dim=22] time: 0.570691
[dim=23] time: 0.585663
[dim=24] Time of forward = 0.598598sec.
AIC: 494.613
k: 23

[dim=41] time: 0.137492
[dim=40] time: 0.176856
[dim=39] time: 0.242853
[dim=38] time: 0.307177
[dim=37] time: 0.358863
[dim=36] time: 0.411805
[dim=35] time: 0.468938
[dim=34] time: 0.554902
[dim=33] time: 0.610646
[dim=32] time: 0.6492
[dim=31] time: 0.69667
[dim=30] time: 0.730831
[dim=29] time: 0.762011
[dim=28] time: 0.817334
[dim=27] time: 0.860468
[dim=26] time: 0.88721
[dim=25] Time of backward = 0.914884sec.
AIC: 493.683
k: 26
